GLPSOL--GLPK LP/MIP Solver 5.0
Parameter(s) specified in the command line:
 --lp ../modeles/15_39.lp --log 15_39.log
Reading problem data from '../modeles/15_39.lp'...
646 rows, 1200 columns, 4170 non-zeros
585 integer variables, all of which are binary
1867 lines were read
GLPK Integer Optimizer 5.0
646 rows, 1200 columns, 4170 non-zeros
585 integer variables, all of which are binary
Preprocessing...
570 constraint coefficient(s) were reduced
646 rows, 1185 columns, 4155 non-zeros
585 integer variables, all of which are binary
Scaling...
 A: min|aij| =  2.630e-03  max|aij| =  4.000e+00  ratio =  1.521e+03
GM: min|aij| =  1.601e-01  max|aij| =  6.245e+00  ratio =  3.900e+01
EQ: min|aij| =  2.564e-02  max|aij| =  1.000e+00  ratio =  3.900e+01
2N: min|aij| =  2.104e-02  max|aij| =  1.583e+00  ratio =  7.523e+01
Constructing initial basis...
Size of triangular part is 646
Solving LP relaxation...
GLPK Simplex Optimizer 5.0
646 rows, 1185 columns, 4155 non-zeros
      0: obj =   3.000000000e+01 inf =   7.450e+01 (31)
    134: obj =   4.805921053e-01 inf =   0.000e+00 (0)
*   329: obj =  -3.868589744e+00 inf =   9.727e-15 (0)
OPTIMAL LP SOLUTION FOUND
Integer optimization begins...
Long-step dual simplex will be used
+   329: mip =     not found yet >=              -inf        (1; 0)
+   332: >>>>>  -3.868589744e+00 >=  -3.868589744e+00 < 0.1% (4; 0)
+   332: mip =  -3.868589744e+00 >=     tree is empty   0.0% (0; 7)
INTEGER OPTIMAL SOLUTION FOUND
Time used:   0.0 secs
Memory used: 1.8 Mb (1936515 bytes)
